
%    +-----------+
% 8  | | | | | | |
% 7  | | | | |8| |
% 6  | | | | | | |
% 5  | | |6| | | |
% 4  | | | |7| | |
% 3  | | |1|1| |5|
% 2  | | |1|1|3| |
% 1  | | |2| |4| |
%    +-----------+
n=6;
m=8;
h=2;
%maxT=45;
boxNumber=8;
boxSideLen = [2, 1, 1, 1, 1, 1, 1, 1];
boxStartX  = [3, 3, 5, 5, 6, 3, 4, 5];
boxStartY  = [2, 1, 2, 1, 3, 5, 4, 7];
